p tw 155 32551 2 
1 3 
1 4 
1 5 
1 6 
1 7 
1 8 
1 9 
1 10 
1 11 
1 12 
1 13 
1 14 
1 15 
1 16 
1 17 
1 18 
1 19 
1 20 
1 21 
1 22 
1 23 
1 24 
1 25 
1 26 
1 27 
1 28 
1 29 
1 36 
1 49 
1 61 
1 71 
1 80 
1 88 
1 98 
1 105 
1 111 
1 117 
1 118 
1 119 
1 120 
1 121 
2 3 
2 4 
2 5 
2 6 
2 7 
2 8 
2 9 
2 10 
2 11 
2 12 
2 13 
2 14 
2 15 
2 16 
2 17 
2 30 
2 31 
2 32 
2 33 
2 34 
2 35 
2 36 
2 37 
2 38 
2 39 
2 40 
2 41 
2 42 
2 44 
2 77 
2 86 
2 87 
2 88 
2 89 
2 90 
2 91 
2 92 
2 93 
2 94 
2 95 
2 96 
3 4 
3 5 
3 6 
3 7 
3 8 
3 9 
3 10 
3 11 
3 12 
3 13 
3 14 
3 15 
3 16 
3 22 
3 40 
3 43 
3 44 
3 45 
3 46 
3 47 
3 48 
3 49 
3 50 
3 51 
3 52 
3 53 
3 54 
3 55 
3 65 
3 74 
3 84 
3 96 
3 99 
3 109 
3 115 
3 120 
3 132 
3 148 
3 149 
3 150 
4 5 
4 6 
4 7 
4 8 
4 9 
4 10 
4 11 
4 12 
4 13 
4 14 
4 15 
4 17 
4 27 
4 30 
4 31 
4 43 
4 50 
4 56 
4 57 
4 58 
4 59 
4 60 
4 61 
4 62 
4 63 
4 64 
4 65 
4 66 
4 81 
4 94 
4 102 
4 109 
4 114 
4 119 
4 134 
4 138 
4 143 
4 146 
4 147 
5 6 
5 7 
5 8 
5 9 
5 10 
5 11 
5 12 
5 13 
5 14 
5 15 
5 18 
5 25 
5 30 
5 31 
5 44 
5 46 
5 56 
5 67 
5 68 
5 69 
5 70 
5 71 
5 72 
5 73 
5 74 
5 75 
5 76 
5 83 
5 92 
5 108 
5 114 
5 118 
5 125 
5 128 
5 132 
5 139 
5 140 
5 141 
6 7 
6 8 
6 9 
6 10 
6 11 
6 12 
6 13 
6 14 
6 15 
6 19 
6 29 
6 32 
6 38 
6 45 
6 55 
6 56 
6 57 
6 67 
6 77 
6 78 
6 79 
6 80 
6 81 
6 82 
6 83 
6 84 
6 85 
6 92 
6 100 
6 110 
6 116 
6 121 
6 124 
6 144 
6 145 
6 147 
6 149 
7 8 
7 9 
7 10 
7 11 
7 12 
7 13 
7 14 
7 15 
7 20 
7 26 
7 33 
7 36 
7 46 
7 55 
7 58 
7 62 
7 68 
7 76 
7 77 
7 78 
7 86 
7 97 
7 98 
7 99 
7 100 
7 101 
7 102 
7 103 
7 106 
7 112 
7 136 
7 141 
7 143 
7 150 
7 151 
7 154 
8 9 
8 10 
8 11 
8 12 
8 13 
8 14 
8 15 
8 21 
8 28 
8 34 
8 41 
8 47 
8 53 
8 59 
8 66 
8 69 
8 71 
8 79 
8 83 
8 86 
8 91 
8 103 
8 104 
8 105 
8 106 
8 107 
8 108 
8 109 
8 110 
8 115 
8 122 
8 133 
8 144 
8 146 
8 151 
9 10 
9 11 
9 12 
9 13 
9 14 
9 15 
9 19 
9 28 
9 34 
9 35 
9 48 
9 51 
9 57 
9 60 
9 70 
9 72 
9 87 
9 95 
9 97 
9 102 
9 104 
9 111 
9 112 
9 113 
9 114 
9 115 
9 116 
9 120 
9 127 
9 136 
9 139 
9 145 
9 152 
9 153 
10 11 
10 12 
10 13 
10 14 
10 15 
10 22 
10 23 
10 35 
10 37 
10 50 
10 52 
10 61 
10 64 
10 69 
10 75 
10 78 
10 80 
10 89 
10 95 
10 101 
10 110 
10 112 
10 122 
10 123 
10 124 
10 125 
10 126 
10 127 
10 135 
10 141 
10 142 
10 146 
10 148 
11 12 
11 13 
11 14 
11 15 
11 23 
11 25 
11 38 
11 40 
11 49 
11 51 
11 60 
11 62 
11 72 
11 73 
11 81 
11 82 
11 90 
11 91 
11 99 
11 101 
11 106 
11 107 
11 113 
11 117 
11 122 
11 124 
11 128 
11 129 
11 130 
11 131 
11 137 
11 138 
12 13 
12 14 
12 15 
12 21 
12 24 
12 32 
12 39 
12 45 
12 54 
12 59 
12 65 
12 73 
12 75 
12 90 
12 93 
12 100 
12 103 
12 111 
12 113 
12 118 
12 123 
12 127 
12 129 
12 132 
12 133 
12 134 
12 135 
12 136 
12 147 
12 154 
12 155 
13 14 
13 15 
13 20 
13 24 
13 33 
13 39 
13 47 
13 53 
13 63 
13 64 
13 67 
13 70 
13 84 
13 88 
13 89 
13 105 
13 116 
13 126 
13 129 
13 131 
13 137 
13 138 
13 139 
13 140 
13 142 
13 143 
13 144 
13 150 
13 152 
13 155 
14 15 
14 26 
14 27 
14 37 
14 42 
14 48 
14 52 
14 58 
14 63 
14 68 
14 74 
14 82 
14 85 
14 93 
14 96 
14 104 
14 107 
14 119 
14 121 
14 123 
14 128 
14 130 
14 133 
14 140 
14 142 
14 145 
14 151 
14 153 
14 155 
15 18 
15 29 
15 41 
15 42 
15 43 
15 54 
15 66 
15 76 
15 79 
15 85 
15 87 
15 94 
15 97 
15 98 
15 108 
15 117 
15 125 
15 126 
15 130 
15 131 
15 134 
15 135 
15 137 
15 148 
15 149 
15 152 
15 153 
15 154 
16 17 
16 18 
16 19 
16 20 
16 21 
16 22 
16 23 
16 24 
16 25 
16 26 
16 27 
16 28 
16 29 
16 30 
16 31 
16 32 
16 33 
16 34 
16 35 
16 36 
16 37 
16 38 
16 39 
16 40 
16 41 
16 42 
16 43 
16 44 
16 45 
16 46 
16 47 
16 48 
16 49 
16 50 
16 51 
16 52 
16 53 
16 54 
16 55 
17 18 
17 19 
17 20 
17 21 
17 22 
17 23 
17 24 
17 25 
17 26 
17 27 
17 28 
17 29 
17 30 
17 43 
17 44 
17 56 
17 57 
17 58 
17 59 
17 60 
17 61 
17 62 
17 63 
17 64 
17 65 
17 66 
17 77 
17 86 
17 87 
17 88 
17 89 
17 90 
17 91 
17 92 
17 93 
17 94 
17 95 
17 96 
18 19 
18 20 
18 21 
18 22 
18 23 
18 24 
18 25 
18 26 
18 27 
18 28 
18 29 
18 31 
18 41 
18 43 
18 44 
18 56 
18 67 
18 68 
18 69 
18 70 
18 71 
18 72 
18 73 
18 74 
18 75 
18 76 
18 85 
18 94 
18 97 
18 108 
18 117 
18 126 
18 131 
18 135 
18 149 
18 153 
18 154 
19 20 
19 21 
19 22 
19 23 
19 24 
19 25 
19 26 
19 27 
19 28 
19 29 
19 32 
19 35 
19 45 
19 48 
19 57 
19 60 
19 67 
19 70 
19 77 
19 78 
19 79 
19 80 
19 81 
19 82 
19 83 
19 84 
19 85 
19 87 
19 97 
19 104 
19 111 
19 112 
19 113 
19 114 
19 115 
19 116 
20 21 
20 22 
20 23 
20 24 
20 25 
20 26 
20 27 
20 28 
20 29 
20 33 
20 39 
20 46 
20 53 
20 58 
20 64 
20 67 
20 68 
20 78 
20 86 
20 89 
20 97 
20 98 
20 99 
20 100 
20 101 
20 102 
20 103 
20 105 
20 116 
20 131 
20 138 
20 140 
20 150 
20 152 
20 155 
21 22 
21 23 
21 24 
21 25 
21 26 
21 27 
21 28 
21 29 
21 32 
21 34 
21 47 
21 54 
21 59 
21 65 
21 69 
21 75 
21 79 
21 86 
21 93 
21 103 
21 104 
21 105 
21 106 
21 107 
21 108 
21 109 
21 110 
21 113 
21 118 
21 127 
21 129 
21 147 
21 154 
21 155 
22 23 
22 24 
22 25 
22 26 
22 27 
22 28 
22 29 
22 37 
22 40 
22 50 
22 61 
22 65 
22 69 
22 74 
22 78 
22 84 
22 89 
22 96 
22 99 
22 109 
22 112 
22 115 
22 120 
22 122 
22 123 
22 124 
22 125 
22 126 
22 127 
22 132 
22 148 
22 149 
22 150 
23 24 
23 25 
23 26 
23 27 
23 28 
23 29 
23 35 
23 38 
23 49 
23 52 
23 60 
23 64 
23 72 
23 75 
23 80 
23 81 
23 90 
23 95 
23 99 
23 101 
23 106 
23 110 
23 122 
23 128 
23 129 
23 130 
23 131 
23 135 
23 141 
23 142 
23 146 
23 148 
24 25 
24 26 
24 27 
24 28 
24 29 
24 33 
24 39 
24 45 
24 47 
24 59 
24 63 
24 70 
24 73 
24 84 
24 88 
24 90 
24 100 
24 111 
24 123 
24 126 
24 129 
24 132 
24 133 
24 134 
24 135 
24 136 
24 137 
24 139 
24 142 
24 143 
24 144 
25 26 
25 27 
25 28 
25 29 
25 30 
25 40 
25 46 
25 51 
25 62 
25 73 
25 82 
25 83 
25 91 
25 92 
25 101 
25 107 
25 108 
25 113 
25 114 
25 117 
25 118 
25 124 
25 125 
25 128 
25 132 
25 137 
25 138 
25 139 
25 140 
25 141 
26 27 
26 28 
26 29 
26 36 
26 37 
26 48 
26 55 
26 58 
26 62 
26 74 
26 76 
26 77 
26 85 
26 93 
26 106 
26 107 
26 112 
26 119 
26 130 
26 133 
26 136 
26 140 
26 141 
26 142 
26 143 
26 145 
26 150 
26 151 
26 154 
27 28 
27 29 
27 31 
27 42 
27 50 
27 52 
27 63 
27 68 
27 81 
27 82 
27 94 
27 96 
27 102 
27 104 
27 109 
27 114 
27 119 
27 121 
27 123 
27 128 
27 134 
27 138 
27 143 
27 146 
27 147 
27 151 
27 153 
27 155 
28 29 
28 34 
28 41 
28 51 
28 53 
28 57 
28 66 
28 71 
28 72 
28 83 
28 91 
28 95 
28 102 
28 103 
28 115 
28 120 
28 122 
28 127 
28 133 
28 136 
28 139 
28 144 
28 145 
28 146 
28 151 
28 152 
28 153 
29 38 
29 42 
29 54 
29 55 
29 56 
29 66 
29 76 
29 79 
29 87 
29 92 
29 98 
29 100 
29 110 
29 116 
29 121 
29 124 
29 125 
29 130 
29 134 
29 137 
29 144 
29 145 
29 147 
29 148 
29 149 
29 152 
30 31 
30 32 
30 33 
30 34 
30 35 
30 36 
30 37 
30 38 
30 39 
30 40 
30 41 
30 42 
30 43 
30 46 
30 56 
30 57 
30 58 
30 59 
30 60 
30 61 
30 62 
30 63 
30 64 
30 65 
30 66 
30 83 
30 92 
30 108 
30 114 
30 118 
30 125 
30 128 
30 132 
30 139 
30 140 
30 141 
31 32 
31 33 
31 34 
31 35 
31 36 
31 37 
31 38 
31 39 
31 40 
31 41 
31 42 
31 44 
31 50 
31 56 
31 67 
31 68 
31 69 
31 70 
31 71 
31 72 
31 73 
31 74 
31 75 
31 76 
31 81 
31 94 
31 102 
31 109 
31 114 
31 119 
31 134 
31 138 
31 143 
31 146 
31 147 
32 33 
32 34 
32 35 
32 36 
32 37 
32 38 
32 39 
32 40 
32 41 
32 42 
32 45 
32 54 
32 57 
32 65 
32 67 
32 75 
32 77 
32 78 
32 79 
32 80 
32 81 
32 82 
32 83 
32 84 
32 85 
32 93 
32 103 
32 113 
32 118 
32 127 
32 129 
32 147 
32 154 
32 155 
33 34 
33 35 
33 36 
33 37 
33 38 
33 39 
33 40 
33 41 
33 42 
33 46 
33 47 
33 58 
33 63 
33 68 
33 70 
33 78 
33 84 
33 86 
33 88 
33 97 
33 98 
33 99 
33 100 
33 101 
33 102 
33 103 
33 126 
33 129 
33 137 
33 139 
33 142 
33 143 
33 144 
34 35 
34 36 
34 37 
34 38 
34 39 
34 40 
34 41 
34 42 
34 47 
34 51 
34 57 
34 59 
34 69 
34 72 
34 79 
34 86 
34 95 
34 102 
34 104 
34 105 
34 106 
34 107 
34 108 
34 109 
34 110 
34 120 
34 127 
34 136 
34 139 
34 145 
34 152 
34 153 
35 36 
35 37 
35 38 
35 39 
35 40 
35 41 
35 42 
35 48 
35 52 
35 60 
35 64 
35 70 
35 75 
35 80 
35 87 
35 95 
35 97 
35 101 
35 104 
35 110 
35 111 
35 112 
35 113 
35 114 
35 115 
35 116 
35 135 
35 141 
35 142 
35 146 
35 148 
36 37 
36 38 
36 39 
36 40 
36 41 
36 42 
36 49 
36 55 
36 61 
36 62 
36 71 
36 76 
36 77 
36 80 
36 88 
36 98 
36 105 
36 106 
36 111 
36 112 
36 117 
36 118 
36 119 
36 120 
36 121 
36 136 
36 141 
36 143 
36 150 
36 151 
36 154 
37 38 
37 39 
37 40 
37 41 
37 42 
37 48 
37 50 
37 58 
37 61 
37 69 
37 74 
37 78 
37 85 
37 89 
37 93 
37 107 
37 112 
37 119 
37 122 
37 123 
37 124 
37 125 
37 126 
37 127 
37 130 
37 133 
37 140 
37 142 
37 145 
38 39 
38 40 
38 41 
38 42 
38 49 
38 55 
38 56 
38 60 
38 72 
38 81 
38 90 
38 92 
38 99 
38 100 
38 106 
38 110 
38 116 
38 121 
38 122 
38 124 
38 128 
38 129 
38 130 
38 131 
38 144 
38 145 
38 147 
38 149 
39 40 
39 41 
39 42 
39 45 
39 53 
39 59 
39 64 
39 67 
39 73 
39 89 
39 90 
39 100 
39 105 
39 111 
39 116 
39 123 
39 131 
39 132 
39 133 
39 134 
39 135 
39 136 
39 138 
39 140 
39 150 
39 152 
39 155 
40 41 
40 42 
40 51 
40 62 
40 65 
40 73 
40 74 
40 82 
40 84 
40 91 
40 96 
40 99 
40 101 
40 107 
40 109 
40 113 
40 115 
40 117 
40 120 
40 124 
40 132 
40 137 
40 138 
40 148 
40 149 
40 150 
41 42 
41 43 
41 53 
41 66 
41 71 
41 83 
41 85 
41 91 
41 94 
41 97 
41 103 
41 108 
41 115 
41 117 
41 122 
41 126 
41 131 
41 133 
41 135 
41 144 
41 146 
41 149 
41 151 
41 153 
41 154 
42 52 
42 54 
42 63 
42 66 
42 68 
42 76 
42 79 
42 82 
42 87 
42 96 
42 98 
42 104 
42 121 
42 123 
42 125 
42 128 
42 130 
42 134 
42 137 
42 148 
42 151 
42 152 
42 153 
42 155 
43 44 
43 45 
43 46 
43 47 
43 48 
43 49 
43 50 
43 51 
43 52 
43 53 
43 54 
43 55 
43 56 
43 57 
43 58 
43 59 
43 60 
43 61 
43 62 
43 63 
43 64 
43 65 
43 66 
43 85 
43 94 
43 97 
43 108 
43 117 
43 126 
43 131 
43 135 
43 149 
43 153 
43 154 
44 45 
44 46 
44 47 
44 48 
44 49 
44 50 
44 51 
44 52 
44 53 
44 54 
44 55 
44 56 
44 67 
44 68 
44 69 
44 70 
44 71 
44 72 
44 73 
44 74 
44 75 
44 76 
44 77 
44 86 
44 87 
44 88 
44 89 
44 90 
44 91 
44 92 
44 93 
44 94 
44 95 
44 96 
45 46 
45 47 
45 48 
45 49 
45 50 
45 51 
45 52 
45 53 
45 54 
45 55 
45 57 
45 59 
45 67 
45 73 
45 77 
45 78 
45 79 
45 80 
45 81 
45 82 
45 83 
45 84 
45 85 
45 90 
45 100 
45 111 
45 123 
45 132 
45 133 
45 134 
45 135 
45 136 
46 47 
46 48 
46 49 
46 50 
46 51 
46 52 
46 53 
46 54 
46 55 
46 58 
46 68 
46 78 
46 83 
46 86 
46 92 
46 97 
46 98 
46 99 
46 100 
46 101 
46 102 
46 103 
46 108 
46 114 
46 118 
46 125 
46 128 
46 132 
46 139 
46 140 
46 141 
47 48 
47 49 
47 50 
47 51 
47 52 
47 53 
47 54 
47 55 
47 59 
47 63 
47 69 
47 70 
47 79 
47 84 
47 86 
47 88 
47 104 
47 105 
47 106 
47 107 
47 108 
47 109 
47 110 
47 126 
47 129 
47 137 
47 139 
47 142 
47 143 
47 144 
48 49 
48 50 
48 51 
48 52 
48 53 
48 54 
48 55 
48 58 
48 60 
48 70 
48 74 
48 85 
48 87 
48 93 
48 97 
48 104 
48 107 
48 111 
48 112 
48 113 
48 114 
48 115 
48 116 
48 119 
48 130 
48 133 
48 140 
48 142 
48 145 
49 50 
49 51 
49 52 
49 53 
49 54 
49 55 
49 60 
49 61 
49 71 
49 72 
49 80 
49 81 
49 88 
49 90 
49 98 
49 99 
49 105 
49 106 
49 111 
49 117 
49 118 
49 119 
49 120 
49 121 
49 122 
49 128 
49 129 
49 130 
49 131 
50 51 
50 52 
50 53 
50 54 
50 55 
50 61 
50 69 
50 78 
50 81 
50 89 
50 94 
50 102 
50 109 
50 112 
50 114 
50 119 
50 122 
50 123 
50 124 
50 125 
50 126 
50 127 
50 134 
50 138 
50 143 
50 146 
50 147 
51 52 
51 53 
51 54 
51 55 
51 57 
51 62 
51 72 
51 73 
51 82 
51 91 
51 95 
51 101 
51 102 
51 107 
51 113 
51 117 
51 120 
51 124 
51 127 
51 136 
51 137 
51 138 
51 139 
51 145 
51 152 
51 153 
52 53 
52 54 
52 55 
52 63 
52 64 
52 68 
52 75 
52 80 
52 82 
52 95 
52 96 
52 101 
52 104 
52 110 
52 121 
52 123 
52 128 
52 135 
52 141 
52 142 
52 146 
52 148 
52 151 
52 153 
52 155 
53 54 
53 55 
53 64 
53 66 
53 67 
53 71 
53 83 
53 89 
53 91 
53 103 
53 105 
53 115 
53 116 
53 122 
53 131 
53 133 
53 138 
53 140 
53 144 
53 146 
53 150 
53 151 
53 152 
53 155 
54 55 
54 65 
54 66 
54 75 
54 76 
54 79 
54 87 
54 93 
54 98 
54 103 
54 113 
54 118 
54 125 
54 127 
54 129 
54 130 
54 134 
54 137 
54 147 
54 148 
54 152 
54 154 
54 155 
55 56 
55 62 
55 76 
55 77 
55 92 
55 100 
55 106 
55 110 
55 112 
55 116 
55 121 
55 124 
55 136 
55 141 
55 143 
55 144 
55 145 
55 147 
55 149 
55 150 
55 151 
55 154 
56 57 
56 58 
56 59 
56 60 
56 61 
56 62 
56 63 
56 64 
56 65 
56 66 
56 67 
56 68 
56 69 
56 70 
56 71 
56 72 
56 73 
56 74 
56 75 
56 76 
56 92 
56 100 
56 110 
56 116 
56 121 
56 124 
56 144 
56 145 
56 147 
56 149 
57 58 
57 59 
57 60 
57 61 
57 62 
57 63 
57 64 
57 65 
57 66 
57 67 
57 72 
57 77 
57 78 
57 79 
57 80 
57 81 
57 82 
57 83 
57 84 
57 85 
57 95 
57 102 
57 120 
57 127 
57 136 
57 139 
57 145 
57 152 
57 153 
58 59 
58 60 
58 61 
58 62 
58 63 
58 64 
58 65 
58 66 
58 68 
58 74 
58 78 
58 85 
58 86 
58 93 
58 97 
58 98 
58 99 
58 100 
58 101 
58 102 
58 103 
58 107 
58 119 
58 130 
58 133 
58 140 
58 142 
58 145 
59 60 
59 61 
59 62 
59 63 
59 64 
59 65 
59 66 
59 69 
59 73 
59 79 
59 86 
59 90 
59 100 
59 104 
59 105 
59 106 
59 107 
59 108 
59 109 
59 110 
59 111 
59 123 
59 132 
59 133 
59 134 
59 135 
59 136 
60 61 
60 62 
60 63 
60 64 
60 65 
60 66 
60 70 
60 72 
60 81 
60 87 
60 90 
60 97 
60 99 
60 104 
60 106 
60 111 
60 112 
60 113 
60 114 
60 115 
60 116 
60 122 
60 128 
60 129 
60 130 
60 131 
61 62 
61 63 
61 64 
61 65 
61 66 
61 69 
61 71 
61 78 
61 80 
61 88 
61 89 
61 98 
61 105 
61 111 
61 112 
61 117 
61 118 
61 119 
61 120 
61 121 
61 122 
61 123 
61 124 
61 125 
61 126 
61 127 
62 63 
62 64 
62 65 
62 66 
62 73 
62 76 
62 77 
62 82 
62 91 
62 101 
62 106 
62 107 
62 112 
62 113 
62 117 
62 124 
62 136 
62 137 
62 138 
62 141 
62 143 
62 150 
62 151 
62 154 
63 64 
63 65 
63 66 
63 68 
63 70 
63 82 
63 84 
63 88 
63 96 
63 104 
63 121 
63 123 
63 126 
63 128 
63 129 
63 137 
63 139 
63 142 
63 143 
63 144 
63 151 
63 153 
63 155 
64 65 
64 66 
64 67 
64 75 
64 80 
64 89 
64 95 
64 101 
64 105 
64 110 
64 116 
64 131 
64 135 
64 138 
64 140 
64 141 
64 142 
64 146 
64 148 
64 150 
64 152 
64 155 
65 66 
65 74 
65 75 
65 84 
65 93 
65 96 
65 99 
65 103 
65 109 
65 113 
65 115 
65 118 
65 120 
65 127 
65 129 
65 132 
65 147 
65 148 
65 149 
65 150 
65 154 
65 155 
66 71 
66 76 
66 79 
66 83 
66 87 
66 91 
66 98 
66 103 
66 115 
66 122 
66 125 
66 130 
66 133 
66 134 
66 137 
66 144 
66 146 
66 148 
66 151 
66 152 
67 68 
67 69 
67 70 
67 71 
67 72 
67 73 
67 74 
67 75 
67 76 
67 77 
67 78 
67 79 
67 80 
67 81 
67 82 
67 83 
67 84 
67 85 
67 89 
67 105 
67 116 
67 131 
67 138 
67 140 
67 150 
67 152 
67 155 
68 69 
68 70 
68 71 
68 72 
68 73 
68 74 
68 75 
68 76 
68 78 
68 82 
68 86 
68 96 
68 97 
68 98 
68 99 
68 100 
68 101 
68 102 
68 103 
68 104 
68 121 
68 123 
68 128 
68 151 
68 153 
68 155 
69 70 
69 71 
69 72 
69 73 
69 74 
69 75 
69 76 
69 78 
69 79 
69 86 
69 89 
69 104 
69 105 
69 106 
69 107 
69 108 
69 109 
69 110 
69 112 
69 122 
69 123 
69 124 
69 125 
69 126 
69 127 
70 71 
70 72 
70 73 
70 74 
70 75 
70 76 
70 84 
70 87 
70 88 
70 97 
70 104 
70 111 
70 112 
70 113 
70 114 
70 115 
70 116 
70 126 
70 129 
70 137 
70 139 
70 142 
70 143 
70 144 
71 72 
71 73 
71 74 
71 75 
71 76 
71 80 
71 83 
71 88 
71 91 
71 98 
71 103 
71 105 
71 111 
71 115 
71 117 
71 118 
71 119 
71 120 
71 121 
71 122 
71 133 
71 144 
71 146 
71 151 
72 73 
72 74 
72 75 
72 76 
72 81 
72 90 
72 95 
72 99 
72 102 
72 106 
72 120 
72 122 
72 127 
72 128 
72 129 
72 130 
72 131 
72 136 
72 139 
72 145 
72 152 
72 153 
73 74 
73 75 
73 76 
73 82 
73 90 
73 91 
73 100 
73 101 
73 107 
73 111 
73 113 
73 117 
73 123 
73 124 
73 132 
73 133 
73 134 
73 135 
73 136 
73 137 
73 138 
74 75 
74 76 
74 84 
74 85 
74 93 
74 96 
74 99 
74 107 
74 109 
74 115 
74 119 
74 120 
74 130 
74 132 
74 133 
74 140 
74 142 
74 145 
74 148 
74 149 
74 150 
75 76 
75 80 
75 93 
75 95 
75 101 
75 103 
75 110 
75 113 
75 118 
75 127 
75 129 
75 135 
75 141 
75 142 
75 146 
75 147 
75 148 
75 154 
75 155 
76 77 
76 79 
76 87 
76 98 
76 106 
76 112 
76 125 
76 130 
76 134 
76 136 
76 137 
76 141 
76 143 
76 148 
76 150 
76 151 
76 152 
76 154 
77 78 
77 79 
77 80 
77 81 
77 82 
77 83 
77 84 
77 85 
77 86 
77 87 
77 88 
77 89 
77 90 
77 91 
77 92 
77 93 
77 94 
77 95 
77 96 
77 106 
77 112 
77 136 
77 141 
77 143 
77 150 
77 151 
77 154 
78 79 
78 80 
78 81 
78 82 
78 83 
78 84 
78 85 
78 86 
78 89 
78 97 
78 98 
78 99 
78 100 
78 101 
78 102 
78 103 
78 112 
78 122 
78 123 
78 124 
78 125 
78 126 
78 127 
79 80 
79 81 
79 82 
79 83 
79 84 
79 85 
79 86 
79 87 
79 98 
79 104 
79 105 
79 106 
79 107 
79 108 
79 109 
79 110 
79 125 
79 130 
79 134 
79 137 
79 148 
79 152 
80 81 
80 82 
80 83 
80 84 
80 85 
80 88 
80 95 
80 98 
80 101 
80 105 
80 110 
80 111 
80 117 
80 118 
80 119 
80 120 
80 121 
80 135 
80 141 
80 142 
80 146 
80 148 
81 82 
81 83 
81 84 
81 85 
81 90 
81 94 
81 99 
81 102 
81 106 
81 109 
81 114 
81 119 
81 122 
81 128 
81 129 
81 130 
81 131 
81 134 
81 138 
81 143 
81 146 
81 147 
82 83 
82 84 
82 85 
82 91 
82 96 
82 101 
82 104 
82 107 
82 113 
82 117 
82 121 
82 123 
82 124 
82 128 
82 137 
82 138 
82 151 
82 153 
82 155 
83 84 
83 85 
83 91 
83 92 
83 103 
83 108 
83 114 
83 115 
83 118 
83 122 
83 125 
83 128 
83 132 
83 133 
83 139 
83 140 
83 141 
83 144 
83 146 
83 151 
84 85 
84 88 
84 96 
84 99 
84 109 
84 115 
84 120 
84 126 
84 129 
84 132 
84 137 
84 139 
84 142 
84 143 
84 144 
84 148 
84 149 
84 150 
85 93 
85 94 
85 97 
85 107 
85 108 
85 117 
85 119 
85 126 
85 130 
85 131 
85 133 
85 135 
85 140 
85 142 
85 145 
85 149 
85 153 
85 154 
86 87 
86 88 
86 89 
86 90 
86 91 
86 92 
86 93 
86 94 
86 95 
86 96 
86 97 
86 98 
86 99 
86 100 
86 101 
86 102 
86 103 
86 104 
86 105 
86 106 
86 107 
86 108 
86 109 
86 110 
87 88 
87 89 
87 90 
87 91 
87 92 
87 93 
87 94 
87 95 
87 96 
87 97 
87 98 
87 104 
87 111 
87 112 
87 113 
87 114 
87 115 
87 116 
87 125 
87 130 
87 134 
87 137 
87 148 
87 152 
88 89 
88 90 
88 91 
88 92 
88 93 
88 94 
88 95 
88 96 
88 98 
88 105 
88 111 
88 117 
88 118 
88 119 
88 120 
88 121 
88 126 
88 129 
88 137 
88 139 
88 142 
88 143 
88 144 
89 90 
89 91 
89 92 
89 93 
89 94 
89 95 
89 96 
89 105 
89 112 
89 116 
89 122 
89 123 
89 124 
89 125 
89 126 
89 127 
89 131 
89 138 
89 140 
89 150 
89 152 
89 155 
90 91 
90 92 
90 93 
90 94 
90 95 
90 96 
90 99 
90 100 
90 106 
90 111 
90 122 
90 123 
90 128 
90 129 
90 130 
90 131 
90 132 
90 133 
90 134 
90 135 
90 136 
91 92 
91 93 
91 94 
91 95 
91 96 
91 101 
91 103 
91 107 
91 113 
91 115 
91 117 
91 122 
91 124 
91 133 
91 137 
91 138 
91 144 
91 146 
91 151 
92 93 
92 94 
92 95 
92 96 
92 100 
92 108 
92 110 
92 114 
92 116 
92 118 
92 121 
92 124 
92 125 
92 128 
92 132 
92 139 
92 140 
92 141 
92 144 
92 145 
92 147 
92 149 
93 94 
93 95 
93 96 
93 103 
93 107 
93 113 
93 118 
93 119 
93 127 
93 129 
93 130 
93 133 
93 140 
93 142 
93 145 
93 147 
93 154 
93 155 
94 95 
94 96 
94 97 
94 102 
94 108 
94 109 
94 114 
94 117 
94 119 
94 126 
94 131 
94 134 
94 135 
94 138 
94 143 
94 146 
94 147 
94 149 
94 153 
94 154 
95 96 
95 101 
95 102 
95 110 
95 120 
95 127 
95 135 
95 136 
95 139 
95 141 
95 142 
95 145 
95 146 
95 148 
95 152 
95 153 
96 99 
96 104 
96 109 
96 115 
96 120 
96 121 
96 123 
96 128 
96 132 
96 148 
96 149 
96 150 
96 151 
96 153 
96 155 
97 98 
97 99 
97 100 
97 101 
97 102 
97 103 
97 104 
97 108 
97 111 
97 112 
97 113 
97 114 
97 115 
97 116 
97 117 
97 126 
97 131 
97 135 
97 149 
97 153 
97 154 
98 99 
98 100 
98 101 
98 102 
98 103 
98 105 
98 111 
98 117 
98 118 
98 119 
98 120 
98 121 
98 125 
98 130 
98 134 
98 137 
98 148 
98 152 
99 100 
99 101 
99 102 
99 103 
99 106 
99 109 
99 115 
99 120 
99 122 
99 128 
99 129 
99 130 
99 131 
99 132 
99 148 
99 149 
99 150 
100 101 
100 102 
100 103 
100 110 
100 111 
100 116 
100 121 
100 123 
100 124 
100 132 
100 133 
100 134 
100 135 
100 136 
100 144 
100 145 
100 147 
100 149 
101 102 
101 103 
101 107 
101 110 
101 113 
101 117 
101 124 
101 135 
101 137 
101 138 
101 141 
101 142 
101 146 
101 148 
102 103 
102 109 
102 114 
102 119 
102 120 
102 127 
102 134 
102 136 
102 138 
102 139 
102 143 
102 145 
102 146 
102 147 
102 152 
102 153 
103 113 
103 115 
103 118 
103 122 
103 127 
103 129 
103 133 
103 144 
103 146 
103 147 
103 151 
103 154 
103 155 
104 105 
104 106 
104 107 
104 108 
104 109 
104 110 
104 111 
104 112 
104 113 
104 114 
104 115 
104 116 
104 121 
104 123 
104 128 
104 151 
104 153 
104 155 
105 106 
105 107 
105 108 
105 109 
105 110 
105 111 
105 116 
105 117 
105 118 
105 119 
105 120 
105 121 
105 131 
105 138 
105 140 
105 150 
105 152 
105 155 
106 107 
106 108 
106 109 
106 110 
106 112 
106 122 
106 128 
106 129 
106 130 
106 131 
106 136 
106 141 
106 143 
106 150 
106 151 
106 154 
107 108 
107 109 
107 110 
107 113 
107 117 
107 119 
107 124 
107 130 
107 133 
107 137 
107 138 
107 140 
107 142 
107 145 
108 109 
108 110 
108 114 
108 117 
108 118 
108 125 
108 126 
108 128 
108 131 
108 132 
108 135 
108 139 
108 140 
108 141 
108 149 
108 153 
108 154 
109 110 
109 114 
109 115 
109 119 
109 120 
109 132 
109 134 
109 138 
109 143 
109 146 
109 147 
109 148 
109 149 
109 150 
110 116 
110 121 
110 124 
110 135 
110 141 
110 142 
110 144 
110 145 
110 146 
110 147 
110 148 
110 149 
111 112 
111 113 
111 114 
111 115 
111 116 
111 117 
111 118 
111 119 
111 120 
111 121 
111 123 
111 132 
111 133 
111 134 
111 135 
111 136 
112 113 
112 114 
112 115 
112 116 
112 122 
112 123 
112 124 
112 125 
112 126 
112 127 
112 136 
112 141 
112 143 
112 150 
112 151 
112 154 
113 114 
113 115 
113 116 
113 117 
113 118 
113 124 
113 127 
113 129 
113 137 
113 138 
113 147 
113 154 
113 155 
114 115 
114 116 
114 118 
114 119 
114 125 
114 128 
114 132 
114 134 
114 138 
114 139 
114 140 
114 141 
114 143 
114 146 
114 147 
115 116 
115 120 
115 122 
115 132 
115 133 
115 144 
115 146 
115 148 
115 149 
115 150 
115 151 
116 121 
116 124 
116 131 
116 138 
116 140 
116 144 
116 145 
116 147 
116 149 
116 150 
116 152 
116 155 
117 118 
117 119 
117 120 
117 121 
117 124 
117 126 
117 131 
117 135 
117 137 
117 138 
117 149 
117 153 
117 154 
118 119 
118 120 
118 121 
118 125 
118 127 
118 128 
118 129 
118 132 
118 139 
118 140 
118 141 
118 147 
118 154 
118 155 
119 120 
119 121 
119 130 
119 133 
119 134 
119 138 
119 140 
119 142 
119 143 
119 145 
119 146 
119 147 
120 121 
120 127 
120 132 
120 136 
120 139 
120 145 
120 148 
120 149 
120 150 
120 152 
120 153 
121 123 
121 124 
121 128 
121 144 
121 145 
121 147 
121 149 
121 151 
121 153 
121 155 
122 123 
122 124 
122 125 
122 126 
122 127 
122 128 
122 129 
122 130 
122 131 
122 133 
122 144 
122 146 
122 151 
123 124 
123 125 
123 126 
123 127 
123 128 
123 132 
123 133 
123 134 
123 135 
123 136 
123 151 
123 153 
123 155 
124 125 
124 126 
124 127 
124 137 
124 138 
124 144 
124 145 
124 147 
124 149 
125 126 
125 127 
125 128 
125 130 
125 132 
125 134 
125 137 
125 139 
125 140 
125 141 
125 148 
125 152 
126 127 
126 129 
126 131 
126 135 
126 137 
126 139 
126 142 
126 143 
126 144 
126 149 
126 153 
126 154 
127 129 
127 136 
127 139 
127 145 
127 147 
127 152 
127 153 
127 154 
127 155 
128 129 
128 130 
128 131 
128 132 
128 139 
128 140 
128 141 
128 151 
128 153 
128 155 
129 130 
129 131 
129 137 
129 139 
129 142 
129 143 
129 144 
129 147 
129 154 
129 155 
130 131 
130 133 
130 134 
130 137 
130 140 
130 142 
130 145 
130 148 
130 152 
131 135 
131 138 
131 140 
131 149 
131 150 
131 152 
131 153 
131 154 
131 155 
132 133 
132 134 
132 135 
132 136 
132 139 
132 140 
132 141 
132 148 
132 149 
132 150 
133 134 
133 135 
133 136 
133 140 
133 142 
133 144 
133 145 
133 146 
133 151 
134 135 
134 136 
134 137 
134 138 
134 143 
134 146 
134 147 
134 148 
134 152 
135 136 
135 141 
135 142 
135 146 
135 148 
135 149 
135 153 
135 154 
136 139 
136 141 
136 143 
136 145 
136 150 
136 151 
136 152 
136 153 
136 154 
137 138 
137 139 
137 142 
137 143 
137 144 
137 148 
137 152 
138 140 
138 143 
138 146 
138 147 
138 150 
138 152 
138 155 
139 140 
139 141 
139 142 
139 143 
139 144 
139 145 
139 152 
139 153 
140 141 
140 142 
140 145 
140 150 
140 152 
140 155 
141 142 
141 143 
141 146 
141 148 
141 150 
141 151 
141 154 
142 143 
142 144 
142 145 
142 146 
142 148 
143 144 
143 146 
143 147 
143 150 
143 151 
143 154 
144 145 
144 146 
144 147 
144 149 
144 151 
145 147 
145 149 
145 152 
145 153 
146 147 
146 148 
146 151 
147 149 
147 154 
147 155 
148 149 
148 150 
148 152 
149 150 
149 153 
149 154 
150 151 
150 152 
150 154 
150 155 
151 153 
151 154 
151 155 
152 153 
152 155 
153 154 
153 155 
154 155 
